%mem = 4GB
%nproc = 4
%chk = CH4.chk
#p RevTPSSRevTPSS em=GD3BJ nmr=GIAO Gen

Generated by autoGau.

0 1
C     -1.34435000     0.26533000    -0.00000000
H     -0.23495000     0.26533000     0.00000000
H     -1.71415000     0.36099000    -1.04157000
H     -1.71415000     1.11953000     0.60363000
H     -1.71415000    -0.68452000     0.43794000

@/home/byt/software/autoGau/basis/pcSseg-1/N


