%chk=N2.chk
# hf/3-21g geom=connectivity

Title Card Required

0 1 0 4 0 -4
 N                 -0.24390245   -0.12195122    0.00000000
 N                 -1.33590245   -0.12195122    0.00000000

 1 2 3.0
 2

