%mem = 4GB
%nproc = 4
%chk = N2.chk
#p HF cc-pVDZ NoSymm guess=fragment=2

Generated by autoGau.

0 1 0 4 0 -4
N(fragment=1)     -0.24390245    -0.12195122     0.00000000
N(fragment=2)     -1.33590245    -0.12195122     0.00000000

--Link1--
%mem = 4GB
%nproc = 4
%chk = N2.chk
#p HF stable=opt cc-pVDZ NoSymm guess=read geom=allcheck


