%mem = 1GB
%nproc = 1
%chk = H2O.chk
#p MP2 IOp(3/125=0333312000) opt 6-311+G(d,p) int=SuperFine

Generated by autoGau.

0 1
O      0.00000000     0.00000000     0.12091400
H      0.00000000     0.75666800    -0.48365800
H      0.00000000    -0.75666800    -0.48365800


