%mem = 24GB
%nproc = 24
%chk = H2O3.chk
#p M062X  opt(ModRedundant,GIC) 6-31G(d,p) NoSymm

Generated by autoGau.

0 1
O     -2.12109900     0.15275700     0.36236700
H     -1.26182000    -0.15720700     0.01249000
H     -2.74456300     0.04217400    -0.36151100
O      0.46851300     0.12482800    -0.54235200
H      1.12745300    -0.25541100     0.04672800
H      0.37017800     1.05352900    -0.25131900
O     -0.56877500     2.41551400     0.54801000
H     -0.86226500     3.12772800    -0.02774600
H     -1.33253600     1.81105900     0.63231100

RH2O4(NSteps=10,StepSize=-0.08)=R(2,4)
RH6O7=R(6,7)
F1(Frozen)=1.0*RH2O4-RH6O7
RH9O1=R(9,1)
F2(Frozen)=1.0*RH2O4-RH9O1


