%mem = 4GB
%nproc = 4
%oldchk = oldN2.chk
%chk = N2.chk
#p DSDPBEP86 IOp(3/125=0079905785,3/78=0429604296,3/76=0310006900,3/74=1004) em=GD3BJ IOp(3/174=0437700,3/175=-1,3/176=0,3/177=-1,3/178=5500000)  Gen SCF=Fermi int=SuperFine NoSymm guess(fragment=2,read) scrf(PCM,read)

Generated by autoGau.

0 1 0 4 0 -4
N(fragment=1)      0.00000000     0.00000000     0.00000000
N(fragment=2)      0.00000000     0.00000000     2.00000000

@/home/byt/software/autoGau/basis/pcSseg-3/N

DIS
Rep
Cav


