%mem = 24GB
%nproc = 24
%chk = NH3.chk
#p M062X  opt(ModRedundant,GIC) 6-31G(d,p) NoSymm

Generated by autoGau.

0 1
H      1.80953700    -0.74056700     0.00001400
H      1.80955100     0.66571400     0.81195400
H      1.80951800     0.66574100    -0.81197200
N      1.41988000     0.19697800     0.00000500

X1=X(1)
Y1=Y(1)
Z1=Z(1)
X2=X(2)
Y2=Y(2)
Z2=Z(2)
X3=X(3)
Y3=Y(3)
Z3=Z(3)
X4=X(4)
Y4=Y(4)
Z4=Z(4)
NA=(Y2-Y1)*(Z3-Z1)-(Y3-Y1)*(Z2-Z1)
NB=(Z2-Z1)*(X3-X1)-(Z3-Z1)*(X2-X1)
NC=(X2-X1)*(Y3-Y1)-(X3-X1)*(Y2-Y2)
ND=-1.0*(NA*X1+NB*Y1+NC*Z1)
Dist(NSteps=20,StepSize=-0.07363)=(NA*X4+NB*Y4+NC*Z4+ND)/SQRT(NA**2+NB**2+NC**2)


