%chk = TS.chk
%mem = 1GB
%nproc = 4
#p opt(TS,calcfc,noeigen) freq B3LYP 6-31G(d,p)

Generated by autoGau.

0 1
N      0.00000000     0.03703704     0.00000000
H      0.17036457     0.78592126     1.17137049
O      0.45331777    -1.24518876     0.00000000
H     -0.29305304    -1.84895246     0.00000000
O      0.41257381     0.62048904    -1.01057801
O     -1.33891775     0.65213337     0.44438357
H     -1.65937234     1.55706920     0.44438357




